p wcnf 81 122 10
5 -1 0
5 -2 0
5 -3 0
5 -4 0
5 -5 0
5 -6 0
5 -7 0
5 -8 0
5 -9 0
5 -10 0
5 -11 0
5 -12 0
5 -13 0
5 -14 0
5 -15 0
5 -16 0
5 -17 0
5 -18 0
5 -19 0
5 -20 0
5 -21 0
5 -22 0
5 -23 0
5 -24 0
5 -25 0
5 -26 0
5 -27 0
5 -28 0
5 -29 0
5 -30 0
5 -31 0
5 -32 0
5 -33 0
5 -34 0
5 -35 0
5 -36 0
5 -37 0
5 -38 0
5 -39 0
5 -40 0
5 -41 0
5 -42 0
5 -43 0
5 -44 0
5 -45 0
5 -46 0
5 -47 0
5 -48 0
5 -49 0
5 -50 0
5 -51 0
5 -52 0
5 -53 0
5 -54 0
5 -55 0
5 -56 0
5 -57 0
5 -58 0
5 -59 0
5 -60 0
5 -61 0
5 -62 0
5 -63 0
5 -64 0
5 -65 0
5 -66 0
5 -67 0
5 -68 0
5 -69 0
5 -70 0
5 -71 0
5 -72 0
5 -73 0
5 -74 0
5 -75 0
5 -76 0
5 -77 0
5 -78 0
5 -79 0
5 -80 0
10 1 2 3 4 5 6 7 8 9 10 11 12 13 14 15 16 17 18 19 20 21 22 23 24 25 26 27 28 29 30 31 32 33 34 35 36 37 38 39 40 41 42 43 44 45 46 47 48 49 50 51 52 53 54 55 56 57 58 59 60 61 62 63 64 65 66 67 68 69 70 71 72 73 74 75 76 77 78 79 80 0
10 81 0
x 10 1 41 43 44 45 47 48 49 50 51 53 54 55 56 62 63 64 66 67 68 69 73 74 75 78 79 81 0
x 10 2 41 43 46 50 52 53 55 58 59 60 65 67 68 69 70 73 74 75 77 80 81 0
x 10 3 44 45 47 52 56 59 61 62 63 64 65 67 68 71 73 75 76 79 81 0
x 10 4 41 42 43 47 48 53 55 56 59 62 64 66 67 68 71 74 77 79 81 0
x 10 5 41 47 48 49 54 55 57 58 59 60 62 63 65 67 69 70 72 74 76 77 81 0
x 10 6 41 43 45 47 48 51 55 57 58 61 63 64 68 69 71 73 75 77 78 79 81 0
x 10 7 41 42 43 44 45 46 48 51 52 53 54 56 57 58 59 61 63 64 65 67 72 77 78 80 81 0
x 10 8 41 42 44 45 46 49 52 58 59 60 61 64 66 68 71 72 73 74 77 78 79 81 0
x 10 9 41 44 45 46 47 48 49 52 53 57 59 60 61 62 65 66 70 74 81 0
x 10 10 42 47 49 50 51 53 55 56 57 58 59 60 62 64 65 66 68 70 74 76 81 0
x 10 11 42 43 45 48 51 52 54 56 57 58 59 60 61 63 64 65 66 67 69 70 73 76 77 78 79 81 0
x 10 12 41 44 45 48 50 52 56 57 58 60 64 65 66 67 68 70 71 72 73 74 76 78 79 81 0
x 10 13 42 45 50 51 55 56 59 60 61 62 63 65 66 67 68 70 72 77 78 80 81 0
x 10 14 43 47 48 53 55 57 58 59 60 61 63 66 68 69 70 73 74 76 81 0
x 10 15 41 42 44 47 48 54 56 57 61 64 65 66 67 68 71 73 74 75 76 77 79 81 0
x 10 16 42 43 47 50 51 52 54 55 56 57 58 61 63 64 65 69 72 75 76 78 79 80 81 0
x 10 17 41 43 44 45 47 49 50 51 52 54 55 56 57 60 61 63 65 68 70 71 73 74 75 76 78 79 81 0
x 10 18 42 44 46 48 49 50 67 68 71 73 74 75 77 79 81 0
x 10 19 42 44 46 47 49 51 57 59 62 63 65 71 72 77 78 81 0
x 10 20 41 51 55 57 58 60 66 68 69 71 72 73 75 77 78 79 81 0
x 10 21 41 42 45 51 54 55 58 59 60 63 65 67 68 72 74 75 79 80 81 0
x 10 22 45 46 47 49 50 52 53 56 57 58 60 64 65 66 67 69 70 73 77 79 80 81 0
x 10 23 41 45 46 52 53 55 56 58 61 68 69 71 72 73 74 75 77 78 80 81 0
x 10 24 41 49 50 51 55 56 58 60 62 63 65 66 68 69 71 74 75 76 79 81 0
x 10 25 41 44 45 47 48 49 50 54 58 59 60 62 65 66 69 70 73 74 78 80 81 0
x 10 26 42 44 45 46 47 49 50 52 54 55 57 60 61 63 65 67 69 73 75 76 77 78 81 0
x 10 27 41 42 46 47 49 50 52 54 57 59 60 62 70 72 73 74 75 76 78 79 80 81 0
x 10 28 41 43 44 48 49 53 55 57 58 61 66 67 68 69 70 71 74 76 77 78 79 81 0
x 10 29 41 45 46 47 48 49 51 54 56 59 65 66 68 71 73 75 79 80 81 0
x 10 30 43 48 52 53 54 55 56 62 64 67 74 75 81 0
x 10 31 44 45 46 47 48 51 53 54 55 56 58 59 61 62 65 70 71 73 74 75 76 78 79 80 81 0
x 10 32 44 50 53 57 61 62 64 65 67 72 74 75 78 80 81 0
x 10 33 41 44 45 48 49 50 51 52 62 63 69 70 73 75 76 78 80 81 0
x 10 34 42 44 45 46 47 49 50 51 54 55 57 59 60 61 65 68 71 73 74 75 79 80 81 0
x 10 35 41 42 44 48 49 54 56 59 64 65 66 70 75 76 78 81 0
x 10 36 41 44 50 52 53 55 56 58 59 60 61 63 64 65 66 67 68 69 70 77 78 79 81 0
x 10 37 43 45 47 48 50 51 52 53 54 56 59 62 63 64 66 70 71 76 77 78 80 81 0
x 10 38 41 42 45 47 49 50 51 52 53 54 55 56 57 59 60 62 66 67 68 69 70 71 73 74 76 78 79 81 0
x 10 39 42 44 45 46 47 48 50 53 55 56 57 60 62 65 66 67 68 70 72 77 78 81 0
x 10 40 42 45 46 47 49 50 51 52 53 54 56 58 61 63 64 67 69 70 73 76 77 78 80 81 0
